(set-info :smt-lib-version 2.6)
(set-logic QF_UFLRA)
(set-info :source |
MathSat group

|)
(set-info :category "random")
(set-info :status unsat)
(declare-fun x0 () Real)
(declare-fun x1 () Real)
(declare-fun x2 () Real)
(declare-fun x3 () Real)
(declare-fun x4 () Real)
(declare-fun x5 () Real)
(declare-fun x6 () Real)
(declare-fun x7 () Real)
(declare-fun x8 () Real)
(declare-fun x9 () Real)
(declare-fun x10 () Real)
(declare-fun x11 () Real)
(declare-fun x12 () Real)
(declare-fun x13 () Real)
(declare-fun x14 () Real)
(declare-fun x15 () Real)
(declare-fun x16 () Real)
(declare-fun x17 () Real)
(declare-fun x18 () Real)
(declare-fun x19 () Real)
(declare-fun x20 () Real)
(declare-fun x21 () Real)
(declare-fun x22 () Real)
(declare-fun x23 () Real)
(declare-fun x24 () Real)
(declare-fun x25 () Real)
(declare-fun x26 () Real)
(declare-fun x27 () Real)
(declare-fun x28 () Real)
(declare-fun x29 () Real)
(declare-fun f0_1 (Real) Real)
(declare-fun f0_2 (Real Real) Real)
(declare-fun f0_3 (Real Real Real) Real)
(declare-fun f0_4 (Real Real Real Real) Real)
(declare-fun P0 () Bool)
(declare-fun P1 () Bool)
(declare-fun P2 () Bool)
(declare-fun P3 () Bool)
(declare-fun P4 () Bool)
(declare-fun P5 () Bool)
(declare-fun P6 () Bool)
(declare-fun P7 () Bool)
(declare-fun P8 () Bool)
(declare-fun P9 () Bool)
(declare-fun P10 () Bool)
(declare-fun P11 () Bool)
(declare-fun P12 () Bool)
(declare-fun P13 () Bool)
(declare-fun P14 () Bool)
(declare-fun P15 () Bool)
(declare-fun P16 () Bool)
(declare-fun P17 () Bool)
(declare-fun P18 () Bool)
(declare-fun P19 () Bool)
(declare-fun P20 () Bool)
(declare-fun P21 () Bool)
(declare-fun P22 () Bool)
(declare-fun P23 () Bool)
(declare-fun P24 () Bool)
(declare-fun P25 () Bool)
(declare-fun P26 () Bool)
(declare-fun P27 () Bool)
(declare-fun P28 () Bool)
(declare-fun P29 () Bool)
(assert (let ((?v_1 (< (+ (- (* 18 x1) (* 23 x10)) (* 42 x5)) 15)) (?v_25 (<= (- (+ (* 23 x15) (* 7 x28)) (* 24 x2)) 10)) (?v_49 (* 20 x7)) (?v_31 (<= (+ (- (* 34 x19) (* 6 x2)) (* 42 x3)) 2))) (let ((?v_86 (= (- (- (* 22 x17) (* 32 x21)) ?v_49) 22)) (?v_7 (<= (+ (- (* 19 x16) (* 33 x7)) (* 13 x7)) 26)) (?v_65 (<= (- (- (* 40 x1) (* 40 x21)) (* 24 x14)) 0)) (?v_44 (<= (+ (- (* 2 x11) (* 39 x7)) (* 18 x14)) 32)) (?v_12 (< (- (- (* 29 x15) (* 6 x8)) (* 20 x19)) 27)) (?v_56 (<= (- (+ (* 8 x2) (* 28 x21)) (* 10 x18)) 5)) (?v_29 (f0_1 x13))) (let ((?v_43 (distinct (f0_2 x25 x2) ?v_29)) (?v_10 (= (f0_1 x4) x0)) (?v_62 (distinct (f0_2 x18 x9) x24)) (?v_63 (= (f0_1 x10) x4)) (?v_151 (= x5 (f0_1 x5))) (?v_108 (distinct (f0_1 x28) (f0_2 x12 x5))) (?v_81 (distinct (f0_1 x9) (f0_2 x4 x22))) (?v_76 (= (f0_2 x2 x27) x18)) (?v_30 (= x19 x29)) (?v_14 (= x24 (f0_1 x26))) (?v_59 (= (f0_2 x8 x16) (f0_2 x15 x29))) (?v_120 (= (f0_1 x12) x16)) (?v_68 (= x27 x3)) (?v_26 (= (f0_2 x15 x21) x6)) (?v_22 (distinct (f0_2 x5 x15) (f0_2 x19 x23))) (?v_111 (distinct x19 x7)) (?v_11 (= x17 x19)) (?v_21 (= x22 (f0_2 x6 x7))) (?v_149 (distinct x23 (f0_2 x17 x4))) (?v_37 (distinct x22 (f0_2 x19 x25))) (?v_139 (distinct (f0_1 x18) (f0_2 x14 x16))) (?v_97 (distinct x16 (f0_1 x29))) (?v_15 (distinct (f0_2 x6 x3) ?v_29)) (?v_66 (distinct x1 (f0_1 x14))) (?v_48 (distinct (f0_2 x6 x22) (f0_2 x26 x10))) (?v_128 (distinct x26 (f0_2 x20 x9))) (?v_3 (= (f0_2 x20 x14) x11)) (?v_17 (distinct x1 x21)) (?v_87 (= (f0_1 x11) (f0_1 x7))) (?v_106 (= (f0_2 x23 x14) (f0_2 x21 x7)))) (let ((?v_0 (not ?v_149)) (?v_55 (not P14)) (?v_42 (not P13)) (?v_124 (not P9)) (?v_18 (not ?v_65)) (?v_70 (not P10)) (?v_114 (not ?v_3)) (?v_41 (not ?v_128)) (?v_35 (not P25)) (?v_61 (not ?v_44)) (?v_118 (not ?v_14)) (?v_50 (not ?v_26)) (?v_105 (not ?v_1)) (?v_122 (not P18)) (?v_69 (not ?v_10)) (?v_8 (not ?v_11)) (?v_5 (not ?v_25)) (?v_80 (not ?v_97)) (?v_16 (not P21)) (?v_20 (not P29)) (?v_127 (not ?v_68)) (?v_52 (not ?v_30)) (?v_46 (not ?v_59)) (?v_144 (not P15)) (?v_79 (not ?v_56)) (?v_9 (not P7)) (?v_112 (not ?v_15)) (?v_146 (not P26)) (?v_39 (not P24)) (?v_88 (not ?v_12)) (?v_113 (not P23)) (?v_133 (not ?v_21)) (?v_82 (not ?v_7)) (?v_137 (not P20)) (?v_45 (not P3)) (?v_78 (not ?v_139)) (?v_27 (not P22)) (?v_100 (not P16)) (?v_99 (not ?v_63)) (?v_98 (not P2)) (?v_138 (not ?v_108)) (?v_132 (not P4)) (?v_101 (not ?v_43)) (?v_60 (not ?v_31)) (?v_126 (not P1)) (?v_90 (not ?v_48)) (?v_134 (not ?v_86)) (?v_72 (not P28)) (?v_109 (not P5)) (?v_57 (not ?v_17)) (?v_116 (not ?v_37)) (?v_83 (not ?v_120)) (?v_85 (not ?v_62)) (?v_119 (not ?v_76)) (?v_102 (not ?v_81)) (?v_110 (not P8)) (?v_103 (not P19)) (?v_136 (not P0)) (?v_142 (not ?v_106)) (?v_115 (not P11)) (?v_130 (not P17)) (?v_129 (not P12)) (?v_135 (not ?v_66)) (?v_131 (not ?v_111)) (?v_125 (not P6)) (?v_148 (not ?v_87)) (?v_143 (not P27)) (?v_150 (not ?v_22)) (?v_152 (not ?v_151))) (let ((?v_154 (or P13 ?v_16)) (?v_67 (= (+ (* 13 x27) (* 16 x17) (* 9 x20)) 4)) (?v_74 (< (+ (- x3 (* 24 x4)) (* 5 x24)) 0))) (let ((?v_104 (not ?v_74)) (?v_28 (<= (+ (* 25 x28) (* 7 x11) (* 27 x28)) 15))) (let ((?v_117 (not ?v_28)) (?v_121 (not ?v_67)) (?v_53 (< (+ (- (* 24 x10) (* 38 x19)) ?v_49) (- 37)))) (let ((?v_33 (not ?v_53)) (?v_2 (distinct (+ (- (* (- 24) x19) (* 31 x19)) (* 18 x2)) (- 12))) (?v_4 (<= (+ (- (* 27 x16) (* 7 x15)) (* 30 x8)) (- 27))) (?v_19 (<= (+ (* 12 x24) (* 18 x15) (* 13 x14)) (- 5))) (?v_73 (<= (+ (- (* (- 21) x16) (* 39 x28)) (* 34 x16)) 39))) (let ((?v_54 (not ?v_73)) (?v_13 (< (- (+ (* (- 42) x17) (* 42 x8)) (* 33 x12)) (- 23))) (?v_23 (not ?v_4)) (?v_6 (< (- (- (* (- 20) x7) (* 9 x12)) (* 23 x6)) 0)) (?v_36 (not ?v_2)) (?v_34 (< (+ (- (* (- 30) x8) (* 5 x29)) (* 30 x27)) (- 11))) (?v_153 (<= (- (+ (* (- 34) x11) (* 19 x24)) (* 32 x8)) (- 16)))) (let ((?v_24 (not ?v_153)) (?v_47 (not ?v_6)) (?v_107 (< (+ (* 14 x6) (* 11 x16) (* 6 x3)) (- 27))) (?v_77 (not ?v_13)) (?v_32 (<= (+ (* (- 32) x3) (* 17 x19) (* 18 x9)) 34)) (?v_64 (= (+ (* (- 23) x1) (* 3 x26) (* 18 x13)) 27)) (?v_38 (< (- (+ (* 42 x9) (* 37 x4)) (* 23 x11)) (- 42))) (?v_92 (<= (- (* (- 35) x18) (* 31 x12)) (- 31)))) (let ((?v_75 (not ?v_92)) (?v_58 (< (+ (* (- 18) x4) (* 4 x9) (* 23 x28)) 36))) (let ((?v_51 (not ?v_58)) (?v_91 (not ?v_32)) (?v_71 (< (- (* (- 16) x11) (* 35 x5)) (- 17))) (?v_84 (not ?v_34)) (?v_40 (<= (+ (- (* (- 29) x12) (* 18 x12)) (* 11 x21)) (- 14)))) (let ((?v_94 (not ?v_40)) (?v_95 (not ?v_64)) (?v_93 (<= (- (- (* (- 39) x16) (* 27 x23)) (* 38 x28)) 0))) (let ((?v_89 (not ?v_93)) (?v_147 (not ?v_38)) (?v_96 (not ?v_19)) (?v_155 (or ?v_92 ?v_93)) (?v_140 (or P3 ?v_40)) (?v_145 (or ?v_107 ?v_60)) (?v_123 (not ?v_107)) (?v_141 (not ?v_71))) (and (and (and (and (and (and (and (and (and (and (and (and (and (and (and (and (and (and (and (and (and (and (and (and (and (and (and (and (and (and (and (and (and (and (and (and (and (and (and (and (and (and (and (and (and (and (and (and (and (and (and (and (and (and (and (and (and (and (and (and (and (and (and (and (and (and (and (and (and (and (and (and (and (and (and (and (and (and (and (and (and (and (and (and (and (and (and (and (and (and (and (and (and (and (and (and (and (and (and (and (and (and (and (and (and (and (and (and (and (and (and (and (and (and (and (and (and (and (and (and (and (and (and (and (and (and (and (and (and (and (and (and (and (and (and (and (and (and (and (and (and (and (and (and (and (and (and (and (and (and (and (and (and (and (and (and (and (and (and (and (and (and (and (and (and (and (and (and (and (and (and (and (and (and (and (and (and (and (and (and (and (and (and (and (and (and (and (and (and (and (and (and (and (and (and (and (and (and (and (and (and (and (and (and (and (and (and (and (and (and (and (and (and (and (and (and (and (and (and (and (and (and (and (and (and (and (and (and (and (and (and (and (and (and (and (and (and (and (and (and (and (and (and (and (and (and (and (and (and (and (and (and (and (and (and (and (and (and (and (and (and (and (and (and (and (and (and (and (and (and (and (and (and (and (and (and (and (and (and (and (and (and (and (and (and (and (and (and (and (and (and (and (and (and (and (and (and (and (and (and (and (and (and (and (and (and (and (and (and (and (and (and (and (and (and (and (and (and (and (and (and (and (and (and (and (and (and (and (and (and (and (and (and (and (and (and (and (and (and (and (and (and (and (and (and (and (and (and (and (and (and (and (and (and (and (and (and (and (and (and (and (and (and (and (and (and (and (and (and (and (and (and (and (and (and (and (and (and (and (and (and (and (and (and (and (and (and (and (and (and (and (and (and (and (and (and (and (and (and (and (and (and (and (and (and (and (and (and (and (and (and (and (and (and (and (and (and (and (and (and (and (and (and (and (and (and (and (and (and (and (and (and (and (and (and (and (and (and (and (and (and (and (and (and (and (and (and (and (and (or (or ?v_33 ?v_15) ?v_0) (or (or ?v_55 ?v_42) ?v_124)) (or (or ?v_2 ?v_18) ?v_70)) (or (or ?v_114 ?v_41) ?v_35)) (or (or P13 ?v_4) ?v_61)) (or (or ?v_48 ?v_118) ?v_0)) (or (or ?v_19 ?v_1) ?v_50)) (or (or ?v_67 ?v_22) ?v_105)) (or (or ?v_122 ?v_2) ?v_54)) (or (or ?v_17 ?v_69) ?v_3)) (or (or ?v_12 ?v_8) ?v_7)) (or (or ?v_13 ?v_5) ?v_80)) (or (or ?v_16 ?v_0) ?v_23)) (or (or P19 ?v_6) P22)) (or (or ?v_5 ?v_20) P15)) (or (or ?v_6 ?v_7) ?v_36)) (or (or ?v_62 ?v_7) P14)) (or (or ?v_127 ?v_52) ?v_34)) (or (or P8 ?v_46) ?v_144)) (or (or ?v_8 ?v_79) ?v_24)) (or (or ?v_9 ?v_9) P4)) (or (or P0 ?v_66) ?v_1)) (or (or ?v_10 P6) P25)) (or (or P8 ?v_11) ?v_12)) (or (or ?v_47 ?v_4) ?v_21)) (or (or ?v_76 P16) ?v_107)) (or (or ?v_77 ?v_14) ?v_112)) (or (or ?v_146 ?v_16) ?v_17)) (or (or ?v_18 ?v_32) ?v_64)) (or (or ?v_87 ?v_81) ?v_39)) (or (or ?v_19 P12) ?v_88)) (or (or ?v_38 ?v_104) ?v_20)) (or (or P14 ?v_113) ?v_16)) (or (or ?v_133 ?v_82) ?v_137)) (or (or P13 ?v_45) ?v_22)) (or (or ?v_23 ?v_24) ?v_8)) (or (or ?v_25 ?v_28) ?v_6)) (or (or P18 ?v_4) P0)) (or (or ?v_78 ?v_31) ?v_26)) (or (or ?v_75 ?v_27) ?v_25)) (or (or ?v_27 ?v_100) ?v_117)) (or (or ?v_43 ?v_51) P0)) (or (or ?v_28 ?v_99) P5)) (or (or ?v_30 P2) ?v_26)) (or (or ?v_31 ?v_91) ?v_1)) (or (or P21 ?v_98) ?v_33)) (or (or ?v_10 ?v_138) ?v_71)) (or (or ?v_84 ?v_35) ?v_36)) (or (or ?v_37 ?v_37) ?v_38)) (or (or ?v_39 ?v_40) P10)) (or (or ?v_132 ?v_94) ?v_41)) (or (or ?v_4 ?v_42) P23)) (or (or ?v_101 ?v_44) ?v_45)) (or (or ?v_60 ?v_46) P19)) (or (or ?v_126 ?v_42) ?v_47)) (or (or ?v_6 ?v_44) ?v_90)) (or (or ?v_22 ?v_17) ?v_134)) (or (or ?v_50 ?v_31) ?v_51)) (or (or P5 ?v_52) ?v_72)) (or (or ?v_109 P2) ?v_57)) (or (or ?v_53 P15) ?v_116)) (or (or ?v_54 ?v_37) ?v_55)) (or (or P1 P2) ?v_56)) (or (or ?v_57 ?v_58) ?v_59)) (or (or ?v_16 P17) ?v_12)) (or (or ?v_83 P24) ?v_60)) (or (or ?v_61 P17) ?v_85)) (or (or P8 P29) ?v_63)) (or (or P10 ?v_95) ?v_65)) (or (or ?v_66 P4) ?v_6)) (or (or ?v_121 ?v_89) P23)) (or (or ?v_61 ?v_68) ?v_69)) (or (or ?v_70 ?v_111) ?v_71)) (or (or P1 ?v_59) ?v_72)) (or (or ?v_73 ?v_74) ?v_147)) (or (or ?v_75 ?v_119) ?v_77)) (or (or ?v_78 ?v_79) ?v_80)) (or (or ?v_102 ?v_110) ?v_82)) (or (or P19 ?v_58) ?v_83)) (or (or ?v_84 ?v_37) ?v_85)) (or (or ?v_86 ?v_20) ?v_26)) (or (or ?v_47 ?v_50) ?v_27)) (or (or ?v_74 ?v_87) P25)) (or (or P26 ?v_19) ?v_80)) (or (or ?v_88 ?v_89) ?v_90)) (or (or ?v_10 ?v_86) ?v_91)) (or (or ?v_96 ?v_68) ?v_33)) (or ?v_155 ?v_8)) (or (or ?v_4 ?v_94) ?v_63)) (or (or ?v_51 ?v_61) ?v_10)) (or (or P14 P21) P3)) (or (or P11 ?v_25) ?v_95)) (or (or P22 ?v_94) ?v_103)) (or (or ?v_54 ?v_106) ?v_78)) (or (or ?v_44 ?v_94) ?v_96)) (or (or ?v_97 ?v_30) ?v_17)) (or (or ?v_10 ?v_98) ?v_79)) (or (or P24 ?v_4) ?v_57)) (or (or ?v_22 ?v_36) P10)) (or (or ?v_40 ?v_94) ?v_12)) (or (or ?v_53 ?v_99) P28)) (or (or ?v_12 ?v_53) P26)) (or (or P2 ?v_100) ?v_101)) (or (or ?v_18 ?v_102) ?v_37)) (or (or ?v_53 ?v_24) ?v_136)) (or (or ?v_48 P9) ?v_103)) (or ?v_140 ?v_58)) (or (or ?v_104 ?v_16) ?v_105)) (or (or ?v_0 ?v_51) ?v_32)) (or (or ?v_142 P13) ?v_38)) (or ?v_145 ?v_18)) (or (or ?v_123 ?v_31) ?v_108)) (or (or ?v_62 ?v_72) ?v_0)) (or (or ?v_12 ?v_50) P24)) (or (or P22 ?v_30) ?v_24)) (or (or ?v_103 ?v_109) P20)) (or (or ?v_115 ?v_24) ?v_19)) (or (or P29 ?v_31) ?v_109)) (or (or ?v_82 ?v_130) ?v_14)) (or (or ?v_96 ?v_110) ?v_111)) (or (or ?v_112 P17) ?v_59)) (or (or ?v_129 ?v_9) ?v_6)) (or (or ?v_81 ?v_105) ?v_90)) (or (or P10 P7) ?v_113)) (or (or ?v_43 ?v_100) P6)) (or (or P6 ?v_30) P29)) (or (or ?v_2 ?v_72) ?v_141)) (or (or ?v_114 ?v_19) ?v_35)) (or (or ?v_115 ?v_116) P9)) (or (or ?v_36 ?v_117) ?v_33)) (or (or P22 P5) ?v_79)) (or (or ?v_68 ?v_14) ?v_116)) (or (or P14 ?v_70) ?v_37)) (or (or ?v_17 ?v_52) ?v_135)) (or (or ?v_59 ?v_0) ?v_131)) (or (or ?v_118 ?v_58) ?v_119)) (or (or ?v_19 ?v_125) ?v_148)) (or (or ?v_120 P8) P3)) (or (or ?v_52 ?v_64) ?v_78)) (or (or P25 P2) ?v_34)) (or (or ?v_121 P15) P5)) (or (or ?v_112 ?v_105) ?v_89)) (or (or ?v_113 ?v_107) ?v_37)) (or (or ?v_122 ?v_20) P27)) (or (or ?v_50 ?v_112) ?v_73)) (or (or ?v_114 ?v_13) ?v_123)) (or (or ?v_124 ?v_125) ?v_70)) (or (or ?v_84 ?v_55) ?v_126)) (or (or P2 ?v_127) P22)) (or (or ?v_78 P3) ?v_28)) (or (or ?v_88 ?v_128) ?v_63)) (or (or P26 ?v_129) ?v_39)) (or (or ?v_9 ?v_86) ?v_88)) (or (or ?v_8 ?v_16) ?v_81)) (or (or ?v_30 ?v_130) ?v_115)) (or (or ?v_131 ?v_6) ?v_130)) (or (or ?v_48 ?v_130) P23)) (or (or ?v_125 ?v_143) ?v_130)) (or (or ?v_76 ?v_62) ?v_30)) (or (or ?v_132 P11) ?v_133)) (or (or ?v_56 ?v_115) ?v_123)) (or (or ?v_94 ?v_62) ?v_134)) (or (or ?v_135 P6) ?v_136)) (or (or P25 ?v_61) ?v_135)) (or (or ?v_34 ?v_120) ?v_63)) (or (or ?v_47 ?v_67) ?v_31)) (or (or ?v_47 P8) ?v_137)) (or (or ?v_83 ?v_138) P26)) (or (or ?v_131 ?v_68) P22)) (or (or P11 ?v_134) P0)) (or (or P29 ?v_127) P18)) (or (or P16 ?v_68) P23)) (or (or ?v_36 ?v_128) ?v_98)) (or (or P19 P17) P4)) (or (or ?v_103 P25) ?v_26)) (or (or ?v_95 ?v_96) ?v_121)) (or (or P8 P28) ?v_26)) (or (or ?v_139 ?v_61) P16)) (or (or ?v_35 ?v_51) ?v_98)) (or (or ?v_40 ?v_113) ?v_151)) (or (or ?v_62 ?v_59) ?v_5)) (or (or ?v_122 P27) ?v_135)) (or (or ?v_128 ?v_138) ?v_64)) (or ?v_140 ?v_113)) (or (or ?v_131 ?v_70) ?v_32)) (or (or ?v_15 ?v_21) ?v_62)) (or (or P2 P28) ?v_141)) (or (or ?v_112 P15) ?v_94)) (or (or P28 ?v_131) P18)) (or (or P9 ?v_115) ?v_79)) (or (or ?v_88 ?v_68) ?v_60)) (or (or ?v_61 ?v_28) ?v_142)) (or (or ?v_107 ?v_52) ?v_137)) (or (or ?v_11 ?v_143) ?v_93)) (or (or P18 ?v_10) ?v_62)) (or (or ?v_144 ?v_89) ?v_12)) (or ?v_145 ?v_110)) (or (or ?v_93 P4) P27)) (or (or ?v_63 ?v_80) ?v_51)) (or (or ?v_15 ?v_71) ?v_114)) (or (or ?v_20 ?v_94) P14)) (or (or ?v_42 ?v_47) ?v_136)) (or (or ?v_102 P10) P27)) (or (or ?v_13 ?v_90) P3)) (or (or P6 P20) ?v_56)) (or (or ?v_113 ?v_27) ?v_58)) (or (or ?v_62 ?v_53) ?v_35)) (or (or ?v_95 ?v_86) ?v_77)) (or (or ?v_85 ?v_88) ?v_111)) (or (or ?v_137 ?v_58) P7)) (or (or P28 P9) ?v_99)) (or (or ?v_84 ?v_22) ?v_139)) (or (or P9 ?v_83) P17)) (or (or ?v_56 ?v_18) ?v_91)) (or (or ?v_21 P26) ?v_62)) (or (or P17 ?v_68) ?v_23)) (or (or ?v_17 P23) ?v_54)) (or (or ?v_62 ?v_20) ?v_132)) (or (or P7 ?v_84) ?v_97)) (or (or ?v_28 ?v_82) ?v_30)) (or (or P5 ?v_104) ?v_56)) (or (or ?v_12 ?v_61) P13)) (or (or ?v_32 P13) ?v_106)) (or (or ?v_108 ?v_142) ?v_102)) (or (or ?v_62 ?v_107) ?v_146)) (or (or ?v_60 ?v_48) ?v_121)) (or (or ?v_102 P29) ?v_32)) (or (or ?v_84 ?v_16) ?v_143)) (or (or ?v_105 ?v_44) ?v_77)) (or (or ?v_37 ?v_9) ?v_89)) (or (or ?v_105 ?v_134) ?v_83)) (or (or ?v_32 ?v_125) ?v_21)) (or (or P7 ?v_57) ?v_66)) (or (or ?v_93 ?v_45) ?v_88)) (or (or ?v_54 ?v_28) ?v_141)) (or (or ?v_7 P16) P12)) (or (or ?v_118 ?v_55) ?v_146)) (or (or ?v_71 ?v_16) ?v_99)) (or (or ?v_36 ?v_55) ?v_101)) (or (or ?v_44 ?v_67) ?v_108)) (or (or ?v_50 ?v_81) P5)) (or (or ?v_113 ?v_98) ?v_69)) (or (or ?v_65 ?v_31) ?v_40)) (or (or ?v_110 ?v_26) ?v_1)) (or (or P18 ?v_32) ?v_118)) (or (or ?v_150 ?v_132) ?v_34)) (or (or ?v_44 ?v_132) ?v_0)) (or (or ?v_85 ?v_147) P9)) (or (or ?v_89 ?v_16) ?v_75)) (or (or ?v_34 P26) ?v_1)) (or (or ?v_89 ?v_87) ?v_18)) (or (or ?v_76 ?v_56) ?v_36)) (or (or ?v_40 P5) ?v_33)) (or (or ?v_11 ?v_148) ?v_71)) (or (or ?v_57 ?v_15) ?v_26)) (or (or ?v_28 P3) ?v_90)) (or (or ?v_9 P18) ?v_67)) (or (or P10 ?v_142) ?v_43)) (or (or ?v_16 ?v_13) ?v_69)) (or (or ?v_47 P14) ?v_132)) (or (or P16 ?v_105) ?v_32)) (or (or ?v_21 ?v_62) ?v_31)) (or (or P24 ?v_70) ?v_75)) (or (or ?v_56 ?v_12) ?v_108)) (or (or ?v_40 ?v_110) ?v_42)) (or (or ?v_62 ?v_146) P19)) (or (or ?v_58 ?v_100) ?v_17)) (or (or ?v_142 ?v_77) P17)) (or (or ?v_93 ?v_37) P6)) (or (or ?v_134 ?v_114) ?v_90)) (or (or ?v_74 ?v_142) P12)) (or (or ?v_39 ?v_149) ?v_40)) (or (or ?v_114 ?v_53) ?v_21)) (or (or ?v_80 ?v_131) ?v_147)) (or (or ?v_105 ?v_65) ?v_144)) (or (or ?v_112 ?v_120) ?v_81)) (or (or ?v_123 ?v_21) P5)) (or (or ?v_43 P17) P11)) (or (or ?v_139 ?v_74) ?v_1)) (or (or ?v_91 ?v_82) ?v_150)) (or (or P18 ?v_105) ?v_58)) (or (or ?v_135 ?v_97) ?v_39)) (or (or P25 ?v_9) ?v_88)) (or (or ?v_3 ?v_152) ?v_148)) (or (or P20 ?v_102) ?v_25)) (or (or P3 ?v_108) P10)) (or (or ?v_24 ?v_3) ?v_23)) (or (or ?v_75 ?v_76) P14)) (or (or ?v_47 ?v_132) ?v_76)) (or (or ?v_23 ?v_119) ?v_86)) (or (or ?v_71 ?v_48) ?v_125)) (or (or ?v_63 ?v_104) P3)) (or (or ?v_85 ?v_54) ?v_75)) (or (or ?v_74 ?v_65) ?v_60)) (or (or ?v_53 P11) ?v_28)) (or (or ?v_48 ?v_48) ?v_146)) (or (or ?v_91 ?v_151) P13)) (or (or ?v_92 ?v_94) ?v_7)) (or (or ?v_64 P25) ?v_110)) (or (or ?v_53 ?v_76) P12)) (or (or ?v_142 ?v_146) ?v_23)) (or (or ?v_13 ?v_35) ?v_8)) (or (or ?v_80 ?v_70) P7)) (or (or ?v_60 ?v_31) ?v_99)) (or (or ?v_127 ?v_89) ?v_121)) (or (or ?v_8 P23) ?v_52)) (or (or ?v_64 ?v_63) P20)) (or (or ?v_12 ?v_120) ?v_143)) (or (or ?v_57 ?v_66) ?v_36)) (or (or ?v_75 ?v_120) ?v_64)) (or (or ?v_137 ?v_35) ?v_92)) (or (or ?v_125 P18) ?v_34)) (or (or ?v_111 ?v_132) ?v_44)) (or (or ?v_32 ?v_75) P12)) (or (or ?v_122 ?v_44) ?v_86)) (or (or ?v_131 ?v_147) ?v_144)) (or (or ?v_53 ?v_52) P28)) (or ?v_154 ?v_48)) (or (or ?v_35 ?v_25) ?v_106)) (or (or P25 ?v_119) ?v_114)) (or (or ?v_83 ?v_129) ?v_115)) (or (or P5 ?v_23) ?v_37)) (or (or ?v_130 ?v_38) ?v_82)) (or (or ?v_80 ?v_56) ?v_105)) (or (or P16 ?v_122) ?v_36)) (or (or ?v_6 ?v_53) ?v_57)) (or (or ?v_151 ?v_128) ?v_117)) (or (or ?v_114 ?v_32) P12)) (or (or ?v_126 ?v_14) ?v_120)) (or (or ?v_17 ?v_142) ?v_88)) (or (or ?v_136 ?v_59) ?v_109)) (or (or P22 ?v_32) ?v_2)) (or (or P19 P15) ?v_99)) (or (or ?v_104 P19) ?v_134)) (or (or ?v_55 ?v_116) P8)) (or (or P19 P28) P7)) (or (or ?v_42 P17) ?v_54)) (or (or ?v_104 ?v_128) ?v_64)) (or (or ?v_89 ?v_97) ?v_76)) (or (or ?v_15 ?v_27) ?v_130)) (or (or ?v_99 ?v_56) ?v_88)) (or (or ?v_10 ?v_152) ?v_61)) (or (or ?v_83 ?v_42) ?v_44)) (or (or ?v_59 ?v_82) P15)) (or (or ?v_13 ?v_39) P4)) (or (or P6 ?v_57) ?v_34)) (or (or P17 ?v_3) P15)) (or (or P23 ?v_54) ?v_62)) (or (or ?v_47 ?v_34) P20)) (or (or ?v_46 ?v_23) ?v_124)) (or (or ?v_132 ?v_22) ?v_149)) (or (or ?v_54 ?v_143) ?v_97)) (or (or ?v_35 ?v_17) P22)) (or (or ?v_39 P14) ?v_81)) (or (or ?v_150 ?v_97) ?v_92)) (or (or ?v_51 ?v_93) P8)) (or (or ?v_77 ?v_152) P23)) (or (or P19 ?v_147) ?v_13)) (or (or ?v_59 P21) ?v_82)) (or (or P21 ?v_16) ?v_33)) (or (or ?v_18 ?v_94) ?v_16)) (or (or ?v_131 ?v_19) ?v_71)) (or (or ?v_85 ?v_19) P9)) (or (or P4 P6) ?v_23)) (or (or ?v_62 ?v_108) ?v_101)) (or (or ?v_120 ?v_0) ?v_6)) (or (or ?v_6 P1) ?v_30)) (or (or ?v_109 ?v_6) ?v_46)) (or (or ?v_47 ?v_55) ?v_100)) (or (or ?v_85 ?v_47) ?v_83)) (or (or ?v_86 P16) P18)) (or (or ?v_13 ?v_129) ?v_80)) (or (or ?v_53 ?v_41) ?v_42)) (or (or ?v_14 ?v_147) ?v_6)) (or (or ?v_34 ?v_94) ?v_128)) (or (or ?v_70 P12) ?v_73)) (or (or ?v_87 ?v_22) ?v_146)) (or (or ?v_41 ?v_123) ?v_30)) (or (or ?v_92 ?v_36) ?v_21)) (or (or ?v_83 ?v_134) ?v_67)) (or (or ?v_4 ?v_146) P18)) (or (or ?v_113 ?v_31) ?v_64)) (or (or ?v_92 ?v_97) ?v_118)) (or (or ?v_142 ?v_148) ?v_3)) (or (or ?v_37 ?v_114) ?v_99)) (or (or ?v_149 ?v_25) ?v_60)) (or (or P14 ?v_5) ?v_130)) (or (or P21 ?v_129) ?v_101)) (or (or ?v_148 ?v_90) ?v_151)) (or (or ?v_36 ?v_125) P10)) (or (or ?v_151 ?v_92) ?v_27)) (or (or ?v_34 P17) ?v_74)) (or (or ?v_40 ?v_32) ?v_126)) (or (or ?v_45 ?v_18) ?v_63)) (or (or ?v_92 ?v_45) ?v_65)) (or (or ?v_126 ?v_102) P9)) (or (or ?v_125 ?v_150) ?v_144)) (or (or P17 P4) ?v_123)) (or (or ?v_60 P17) ?v_123)) (or (or ?v_91 ?v_128) P14)) (or (or ?v_94 ?v_141) ?v_119)) (or (or P4 ?v_82) ?v_109)) (or (or P9 ?v_151) ?v_40)) (or (or P0 P25) ?v_116)) (or (or ?v_26 ?v_63) ?v_138)) (or (or ?v_16 ?v_114) ?v_66)) (or (or ?v_121 ?v_129) P7)) (or (or ?v_54 ?v_26) P7)) (or (or P27 ?v_107) ?v_84)) (or (or ?v_75 P21) ?v_45)) (or (or ?v_39 ?v_38) ?v_118)) (or (or P6 ?v_58) ?v_108)) (or (or ?v_97 ?v_148) ?v_72)) (or (or ?v_9 ?v_106) ?v_138)) (or (or ?v_89 ?v_76) ?v_98)) (or (or ?v_119 ?v_32) P6)) (or (or ?v_137 ?v_88) ?v_59)) (or (or P23 ?v_147) ?v_12)) (or (or ?v_116 ?v_129) ?v_107)) (or (or ?v_59 ?v_148) ?v_17)) (or (or P13 P23) ?v_46)) (or (or ?v_94 ?v_24) ?v_31)) (or (or ?v_89 ?v_75) ?v_3)) (or (or ?v_148 P26) ?v_91)) (or (or ?v_153 ?v_25) ?v_127)) (or (or ?v_32 P9) ?v_86)) (or (or P10 ?v_89) P20)) (or (or P5 ?v_43) ?v_80)) (or (or ?v_62 ?v_139) ?v_53)) (or (or P1 ?v_1) ?v_59)) (or (or ?v_66 ?v_61) ?v_21)) (or (or ?v_41 P12) ?v_82)) (or (or ?v_45 ?v_139) ?v_104)) (or (or P14 ?v_57) ?v_54)) (or (or P29 ?v_55) ?v_16)) (or (or ?v_5 ?v_93) ?v_35)) (or (or ?v_129 ?v_32) ?v_5)) (or (or ?v_148 ?v_60) ?v_125)) (or (or ?v_7 ?v_137) ?v_109)) (or (or ?v_96 ?v_122) P1)) (or ?v_154 ?v_138)) (or (or ?v_120 ?v_14) P7)) (or (or ?v_136 P27) ?v_69)) (or ?v_155 ?v_70)) (or (or ?v_95 P26) ?v_72)) (or (or P13 ?v_129) P28)) (or (or ?v_112 ?v_50) P5)) (or (or ?v_133 ?v_43) ?v_72)) (or (or ?v_70 P13) ?v_106)) (or (or P23 ?v_70) P18)))))))))))))))))
(check-sat)
(exit)
